
%FILE DATA:	Soccer Computational Problem for MiniZinc Models	%
%AUTHOR:	Jack Wall	%
%CONTACT:  	116397063@umail.ucc.ie			%
%LAST UPDATE:	03/09/2020, 15:15:29						%
%DESCRIPTION: 	108 games played with 24 games left				%


n=12; %number of teams

%Games to play
games=[|4,6|12,7|9,4|3,7|8,6|8,2|1,6|5,10|4,2|8,9|3,6|4,3|8,12|6,8|1,5|6,10|11,9|12,10|3,11|1,2|4,11|11,5|5,6|11,4|];

%Initial points
iPoints=[22,27,26,18,30,17,32,24,21,19,22,30];

%POSITION CONSTRAINTS
% [|teamID, operator, position|...]
% operators index:
%  1 for =  operator
%  2 for >  operator
%  3 for >= operator
%  4 for <  operator
%  5 for <= operator
positionConstraints=[|12,1,1|3,4,3|2,2,2|];